400
500 500
1 350 732
2 349 144
3 348 642
4 348 872
5 348 679
6 345 371
7 345 344
8 344 164
9 344 126
10 343 617
11 343 943
12 342 111
13 341 466
14 340 322
15 340 746
16 339 515
17 339 7
18 338 860
19 338 744
20 336 550
21 336 236
22 336 20
23 336 382
24 336 809
25 334 128
26 332 992
27 332 585
28 331 563
29 331 479
30 330 708
31 330 195
32 329 906
33 328 954
34 328 607
35 328 745
36 327 906
37 327 167
38 327 463
39 326 654
40 326 518
41 325 573
42 325 989
43 324 253
44 320 28
45 320 297
46 320 399
47 320 644
48 320 670
49 320 793
50 319 234
51 318 131
52 317 604
53 316 81
54 315 966
55 315 299
56 314 965
57 314 871
58 313 616
59 313 828
60 313 350
61 311 646
62 311 803
63 311 132
64 310 650
65 310 151
66 309 611
67 309 888
68 308 542
69 308 497
70 307 398
71 307 665
72 306 293
73 306 261
74 305 54
75 305 786
76 305 773
77 305 140
78 304 140
79 303 218
80 303 322
81 303 365
82 302 67
83 302 997
84 302 193
85 301 784
86 301 503
87 299 873
88 299 233
89 298 847
90 298 119
91 298 933
92 297 799
93 297 813
94 296 692
95 296 856
96 295 60
97 295 888
98 293 190
99 293 714
100 293 434
101 293 826
102 292 613
103 292 435
104 292 991
105 290 303
106 290 576
107 289 466
108 289 623
109 288 342
110 287 231
111 286 430
112 286 826
113 285 251
114 285 715
115 285 732
116 285 350
117 284 806
118 283 763
119 282 209
120 282 903
121 282 901
122 282 527
123 281 729
124 281 963
125 281 511
126 281 664
127 279 108
128 279 457
129 279 400
130 278 631
131 278 440
132 276 998
133 276 178
134 276 210
135 276 192
136 275 870
137 274 366
138 274 643
139 273 311
140 273 280
141 273 406
142 271 601
143 271 529
144 270 819
145 269 552
146 267 704
147 267 241
148 265 882
149 265 526
150 264 22
151 264 143
152 263 671
153 263 443
154 263 144
155 262 601
156 261 488
157 261 598
158 260 503
159 258 562
160 258 349
161 257 127
162 257 332
163 256 277
164 256 931
165 255 269
166 255 524
167 254 806
168 254 570
169 254 192
170 254 807
171 253 378
172 253 464
173 252 81
174 252 148
175 250 605
176 250 718
177 249 947
178 249 214
179 249 780
180 248 788
181 248 406
182 247 367
183 247 584
184 247 770
185 245 664
186 244 908
187 242 667
188 242 156
189 242 308
190 241 611
191 240 531
192 240 167
193 240 5
194 240 888
195 239 551
196 239 858
197 239 841
198 239 195
199 239 109
200 238 6
201 238 571
202 237 382
203 237 952
204 237 800
205 236 552
206 236 578
207 235 55
208 235 937
209 235 336
210 234 658
211 234 706
212 234 299
213 232 947
214 231 744
215 230 398
216 230 527
217 227 977
218 227 527
219 226 937
220 225 618
221 225 669
222 224 1
223 223 75
224 223 736
225 222 474
226 222 519
227 221 593
228 221 590
229 220 140
230 220 564
231 219 607
232 217 676
233 216 765
234 216 653
235 215 794
236 215 799
237 214 613
238 214 582
239 214 135
240 213 293
241 212 9
242 212 804
243 210 86
244 210 963
245 209 11
246 209 407
247 209 880
248 208 13
249 208 132
250 206 691
251 206 729
252 206 579
253 206 297
254 205 294
255 204 953
256 204 914
257 203 515
258 203 886
259 201 684
260 201 142
261 201 869
262 200 749
263 200 331
264 199 136
265 199 960
266 198 213
267 197 57
268 196 957
269 193 446
270 192 490
271 192 626
272 192 125
273 191 7
274 190 515
275 190 110
276 189 765
277 188 638
278 188 810
279 188 511
280 188 805
281 188 195
282 188 10
283 187 162
284 187 430
285 186 317
286 186 359
287 186 802
288 185 780
289 185 925
290 183 672
291 182 748
292 180 410
293 179 955
294 179 745
295 178 306
296 178 464
297 177 343
298 176 499
299 176 106
300 176 519
301 175 598
302 175 313
303 174 631
304 173 639
305 173 676
306 172 992
307 172 751
308 171 80
309 169 916
310 168 936
311 168 233
312 167 595
313 167 310
314 167 971
315 166 109
316 165 686
317 163 128
318 160 292
319 160 325
320 159 712
321 159 118
322 158 619
323 156 354
324 156 237
325 155 966
326 154 186
327 154 966
328 153 539
329 152 486
330 151 811
331 150 133
332 150 469
333 150 54
334 149 905
335 148 584
336 147 937
337 147 424
338 147 115
339 147 207
340 145 785
341 145 24
342 144 343
343 144 938
344 144 88
345 143 902
346 142 809
347 141 399
348 141 391
349 141 693
350 141 931
351 136 244
352 133 523
353 133 6
354 133 888
355 130 922
356 130 145
357 129 769
358 129 114
359 128 457
360 127 364
361 126 480
362 126 545
363 126 240
364 125 583
365 125 142
366 125 125
367 124 255
368 123 492
369 123 270
370 123 689
371 123 647
372 121 776
373 119 445
374 118 229
375 118 140
376 118 337
377 117 534
378 117 398
379 117 599
380 116 576
381 115 250
382 111 155
383 109 52
384 108 385
385 107 799
386 107 950
387 106 86
388 106 691
389 106 373
390 106 684
391 105 373
392 103 615
393 102 122
394 102 939
395 101 575
396 100 960
397 100 669
398 100 875
399 100 185
400 100 191
